(set-logic QF_FF)
(define-sort FF0 () (_ FiniteField 21888242871839275222246405745257275088548364400416034343698204186575808495617))
(declare-fun s_4 () FF0)
(declare-fun s_4_aux () FF0)
(declare-fun s_5 () FF0)
(declare-fun s_6 () FF0)
(declare-fun s_7 () FF0)
(declare-fun s_8 () FF0)
(declare-fun s_9 () FF0)
(declare-fun s_10 () FF0)
(declare-fun s_11 () FF0)
(declare-fun s_12 () FF0)
(declare-fun s_13 () FF0)
(declare-fun s_14 () FF0)
(declare-fun s_15 () FF0)
(declare-fun s_16 () FF0)
(declare-fun s_17 () FF0)
(declare-fun s_18 () FF0)
(declare-fun s_19 () FF0)
(declare-fun s_20 () FF0)
(declare-fun s_21 () FF0)
(declare-fun s_22 () FF0)
(declare-fun s_23 () FF0)
(declare-fun s_24 () FF0)
(declare-fun s_25 () FF0)
(declare-fun s_26 () FF0)
(declare-fun s_27 () FF0)
(declare-fun s_28 () FF0)
(declare-fun s_29 () FF0)
(declare-fun s_30 () FF0)
(declare-fun s_31 () FF0)
(declare-fun s_32 () FF0)
(declare-fun s_33 () FF0)
(declare-fun s_34 () FF0)
(declare-fun s_35 () FF0)
(declare-fun s_36 () FF0)
(assert (= (ff.add (ff.mul s_20 (as ff32768 FF0)) (ff.mul s_34 (as ff536870912 FF0)) (ff.mul s_19 (as ff16384 FF0)) (ff.mul s_27 (as ff4194304 FF0)) (ff.mul s_23 (as ff262144 FF0)) (ff.mul s_12 (as ff128 FF0)) (ff.mul s_14 (as ff512 FF0)) (ff.mul s_36 (as ff2147483648 FF0)) (ff.mul s_31 (as ff67108864 FF0)) (ff.mul s_35 (as ff1073741824 FF0)) (ff.mul s_4 (as ff21888242871839275222246405745257275088548364400416034343698204186575808495616 FF0)) (ff.mul s_22 (as ff131072 FF0)) (ff.mul s_28 (as ff8388608 FF0)) (ff.mul s_16 (as ff2048 FF0)) (ff.mul s_13 (as ff256 FF0)) (ff.mul s_21 (as ff65536 FF0)) (ff.mul s_33 (as ff268435456 FF0)) (ff.mul s_9 (as ff16 FF0)) (ff.mul s_32 (as ff134217728 FF0)) (ff.mul s_30 (as ff33554432 FF0)) (ff.mul s_18 (as ff8192 FF0)) (ff.mul s_8 (as ff8 FF0)) (ff.mul s_10 (as ff32 FF0)) (ff.mul s_24 (as ff524288 FF0)) (ff.mul s_25 (as ff1048576 FF0)) (ff.mul s_15 (as ff1024 FF0)) (ff.mul s_29 (as ff16777216 FF0)) (ff.mul s_7 (as ff4 FF0)) (ff.mul s_11 (as ff64 FF0)) (ff.mul s_6 (as ff2 FF0)) (ff.mul s_26 (as ff2097152 FF0)) s_5 (ff.mul s_17 (as ff4096 FF0)) ) (as ff0 FF0)))
(assert (= (ff.add (ff.mul s_20 (as ff32768 FF0)) (ff.mul s_34 (as ff536870912 FF0)) (ff.mul s_19 (as ff16384 FF0)) (ff.mul s_27 (as ff4194304 FF0)) (ff.mul s_23 (as ff262144 FF0)) (ff.mul s_12 (as ff128 FF0)) (ff.mul s_14 (as ff512 FF0)) (ff.mul s_36 (as ff2147483648 FF0)) (ff.mul s_31 (as ff67108864 FF0)) (ff.mul s_35 (as ff1073741824 FF0)) (ff.mul s_4_aux (as ff21888242871839275222246405745257275088548364400416034343698204186575808495616 FF0)) (ff.mul s_22 (as ff131072 FF0)) (ff.mul s_28 (as ff8388608 FF0)) (ff.mul s_16 (as ff2048 FF0)) (ff.mul s_13 (as ff256 FF0)) (ff.mul s_21 (as ff65536 FF0)) (ff.mul s_33 (as ff268435456 FF0)) (ff.mul s_9 (as ff16 FF0)) (ff.mul s_32 (as ff134217728 FF0)) (ff.mul s_30 (as ff33554432 FF0)) (ff.mul s_18 (as ff8192 FF0)) (ff.mul s_8 (as ff8 FF0)) (ff.mul s_10 (as ff32 FF0)) (ff.mul s_24 (as ff524288 FF0)) (ff.mul s_25 (as ff1048576 FF0)) (ff.mul s_15 (as ff1024 FF0)) (ff.mul s_29 (as ff16777216 FF0)) (ff.mul s_7 (as ff4 FF0)) (ff.mul s_11 (as ff64 FF0)) (ff.mul s_6 (as ff2 FF0)) (ff.mul s_26 (as ff2097152 FF0)) s_5 (ff.mul s_17 (as ff4096 FF0)) ) (as ff0 FF0)))
(assert (=> (and (= s_9 s_9) (= s_26 s_26) (= s_17 s_17) (= s_23 s_23) (= s_31 s_31) (= s_32 s_32) (= s_6 s_6) (= s_33 s_33) (= s_16 s_16) (= s_24 s_24) (= s_29 s_29) (= s_20 s_20) (= s_34 s_34) (= s_21 s_21) (= s_14 s_14) (= s_36 s_36) (= s_11 s_11) (= s_27 s_27) (= s_28 s_28) (= s_19 s_19) (= s_12 s_12) (= s_25 s_25) (= s_22 s_22) (= s_35 s_35) (= s_7 s_7) (= s_18 s_18) (= s_13 s_13) (= s_5 s_5) (= s_30 s_30) (= s_8 s_8) (= s_10 s_10) (= s_15 s_15) ) (= s_4 s_4_aux)))
(assert (=> (and (= s_9 s_9) (= s_26 s_26) (= s_17 s_17) (= s_23 s_23) (= s_31 s_31) (= s_32 s_32) (= s_6 s_6) (= s_33 s_33) (= s_16 s_16) (= s_24 s_24) (= s_29 s_29) (= s_20 s_20) (= s_34 s_34) (= s_21 s_21) (= s_14 s_14) (= s_36 s_36) (= s_11 s_11) (= s_27 s_27) (= s_4 s_4_aux) (= s_28 s_28) (= s_19 s_19) (= s_12 s_12) (= s_25 s_25) (= s_22 s_22) (= s_35 s_35) (= s_18 s_18) (= s_13 s_13) (= s_5 s_5) (= s_30 s_30) (= s_8 s_8) (= s_10 s_10) (= s_15 s_15) ) (= s_7 s_7)))
(assert (=> (and (= s_9 s_9) (= s_26 s_26) (= s_17 s_17) (= s_23 s_23) (= s_31 s_31) (= s_32 s_32) (= s_6 s_6) (= s_33 s_33) (= s_16 s_16) (= s_24 s_24) (= s_29 s_29) (= s_20 s_20) (= s_34 s_34) (= s_21 s_21) (= s_14 s_14) (= s_36 s_36) (= s_11 s_11) (= s_4 s_4_aux) (= s_28 s_28) (= s_19 s_19) (= s_12 s_12) (= s_25 s_25) (= s_22 s_22) (= s_35 s_35) (= s_7 s_7) (= s_18 s_18) (= s_13 s_13) (= s_5 s_5) (= s_30 s_30) (= s_8 s_8) (= s_10 s_10) (= s_15 s_15) ) (= s_27 s_27)))
(assert (=> (and (= s_9 s_9) (= s_26 s_26) (= s_17 s_17) (= s_31 s_31) (= s_32 s_32) (= s_6 s_6) (= s_33 s_33) (= s_16 s_16) (= s_24 s_24) (= s_29 s_29) (= s_20 s_20) (= s_34 s_34) (= s_21 s_21) (= s_14 s_14) (= s_36 s_36) (= s_11 s_11) (= s_27 s_27) (= s_4 s_4_aux) (= s_28 s_28) (= s_19 s_19) (= s_12 s_12) (= s_25 s_25) (= s_22 s_22) (= s_35 s_35) (= s_7 s_7) (= s_18 s_18) (= s_13 s_13) (= s_5 s_5) (= s_30 s_30) (= s_8 s_8) (= s_10 s_10) (= s_15 s_15) ) (= s_23 s_23)))
(assert (=> (and (= s_9 s_9) (= s_26 s_26) (= s_17 s_17) (= s_23 s_23) (= s_31 s_31) (= s_32 s_32) (= s_6 s_6) (= s_33 s_33) (= s_16 s_16) (= s_24 s_24) (= s_29 s_29) (= s_20 s_20) (= s_34 s_34) (= s_21 s_21) (= s_14 s_14) (= s_11 s_11) (= s_27 s_27) (= s_4 s_4_aux) (= s_28 s_28) (= s_19 s_19) (= s_12 s_12) (= s_25 s_25) (= s_22 s_22) (= s_35 s_35) (= s_7 s_7) (= s_18 s_18) (= s_13 s_13) (= s_5 s_5) (= s_30 s_30) (= s_8 s_8) (= s_10 s_10) (= s_15 s_15) ) (= s_36 s_36)))
(assert (=> (and (= s_9 s_9) (= s_26 s_26) (= s_17 s_17) (= s_23 s_23) (= s_31 s_31) (= s_32 s_32) (= s_6 s_6) (= s_33 s_33) (= s_16 s_16) (= s_24 s_24) (= s_29 s_29) (= s_20 s_20) (= s_34 s_34) (= s_21 s_21) (= s_36 s_36) (= s_11 s_11) (= s_27 s_27) (= s_4 s_4_aux) (= s_28 s_28) (= s_19 s_19) (= s_12 s_12) (= s_25 s_25) (= s_22 s_22) (= s_35 s_35) (= s_7 s_7) (= s_18 s_18) (= s_13 s_13) (= s_5 s_5) (= s_30 s_30) (= s_8 s_8) (= s_10 s_10) (= s_15 s_15) ) (= s_14 s_14)))
(assert (=> (and (= s_9 s_9) (= s_26 s_26) (= s_17 s_17) (= s_23 s_23) (= s_31 s_31) (= s_32 s_32) (= s_6 s_6) (= s_33 s_33) (= s_16 s_16) (= s_24 s_24) (= s_29 s_29) (= s_20 s_20) (= s_34 s_34) (= s_21 s_21) (= s_14 s_14) (= s_36 s_36) (= s_11 s_11) (= s_27 s_27) (= s_4 s_4_aux) (= s_28 s_28) (= s_19 s_19) (= s_12 s_12) (= s_25 s_25) (= s_35 s_35) (= s_7 s_7) (= s_18 s_18) (= s_13 s_13) (= s_5 s_5) (= s_30 s_30) (= s_8 s_8) (= s_10 s_10) (= s_15 s_15) ) (= s_22 s_22)))
(assert (=> (and (= s_9 s_9) (= s_26 s_26) (= s_17 s_17) (= s_23 s_23) (= s_31 s_31) (= s_32 s_32) (= s_6 s_6) (= s_33 s_33) (= s_16 s_16) (= s_24 s_24) (= s_29 s_29) (= s_20 s_20) (= s_34 s_34) (= s_21 s_21) (= s_14 s_14) (= s_36 s_36) (= s_11 s_11) (= s_27 s_27) (= s_4 s_4_aux) (= s_28 s_28) (= s_12 s_12) (= s_25 s_25) (= s_22 s_22) (= s_35 s_35) (= s_7 s_7) (= s_18 s_18) (= s_13 s_13) (= s_5 s_5) (= s_30 s_30) (= s_8 s_8) (= s_10 s_10) (= s_15 s_15) ) (= s_19 s_19)))
(assert (=> (and (= s_9 s_9) (= s_26 s_26) (= s_17 s_17) (= s_23 s_23) (= s_31 s_31) (= s_6 s_6) (= s_33 s_33) (= s_16 s_16) (= s_24 s_24) (= s_29 s_29) (= s_20 s_20) (= s_34 s_34) (= s_21 s_21) (= s_14 s_14) (= s_36 s_36) (= s_11 s_11) (= s_27 s_27) (= s_4 s_4_aux) (= s_28 s_28) (= s_19 s_19) (= s_12 s_12) (= s_25 s_25) (= s_22 s_22) (= s_35 s_35) (= s_7 s_7) (= s_18 s_18) (= s_13 s_13) (= s_5 s_5) (= s_30 s_30) (= s_8 s_8) (= s_10 s_10) (= s_15 s_15) ) (= s_32 s_32)))
(assert (=> (and (= s_9 s_9) (= s_26 s_26) (= s_17 s_17) (= s_23 s_23) (= s_31 s_31) (= s_32 s_32) (= s_6 s_6) (= s_33 s_33) (= s_24 s_24) (= s_29 s_29) (= s_20 s_20) (= s_34 s_34) (= s_21 s_21) (= s_14 s_14) (= s_36 s_36) (= s_11 s_11) (= s_27 s_27) (= s_4 s_4_aux) (= s_28 s_28) (= s_19 s_19) (= s_12 s_12) (= s_25 s_25) (= s_22 s_22) (= s_35 s_35) (= s_7 s_7) (= s_18 s_18) (= s_13 s_13) (= s_5 s_5) (= s_30 s_30) (= s_8 s_8) (= s_10 s_10) (= s_15 s_15) ) (= s_16 s_16)))
(assert (=> (and (= s_9 s_9) (= s_26 s_26) (= s_17 s_17) (= s_23 s_23) (= s_31 s_31) (= s_32 s_32) (= s_6 s_6) (= s_33 s_33) (= s_16 s_16) (= s_24 s_24) (= s_29 s_29) (= s_20 s_20) (= s_34 s_34) (= s_21 s_21) (= s_14 s_14) (= s_36 s_36) (= s_11 s_11) (= s_27 s_27) (= s_4 s_4_aux) (= s_28 s_28) (= s_19 s_19) (= s_12 s_12) (= s_25 s_25) (= s_22 s_22) (= s_35 s_35) (= s_7 s_7) (= s_18 s_18) (= s_13 s_13) (= s_5 s_5) (= s_30 s_30) (= s_10 s_10) (= s_15 s_15) ) (= s_8 s_8)))
(assert (=> (and (= s_9 s_9) (= s_26 s_26) (= s_17 s_17) (= s_23 s_23) (= s_31 s_31) (= s_32 s_32) (= s_6 s_6) (= s_33 s_33) (= s_16 s_16) (= s_24 s_24) (= s_29 s_29) (= s_34 s_34) (= s_21 s_21) (= s_14 s_14) (= s_36 s_36) (= s_11 s_11) (= s_27 s_27) (= s_4 s_4_aux) (= s_28 s_28) (= s_19 s_19) (= s_12 s_12) (= s_25 s_25) (= s_22 s_22) (= s_35 s_35) (= s_7 s_7) (= s_18 s_18) (= s_13 s_13) (= s_5 s_5) (= s_30 s_30) (= s_8 s_8) (= s_10 s_10) (= s_15 s_15) ) (= s_20 s_20)))
(assert (=> (and (= s_26 s_26) (= s_17 s_17) (= s_23 s_23) (= s_31 s_31) (= s_32 s_32) (= s_6 s_6) (= s_33 s_33) (= s_16 s_16) (= s_24 s_24) (= s_29 s_29) (= s_20 s_20) (= s_34 s_34) (= s_21 s_21) (= s_14 s_14) (= s_36 s_36) (= s_11 s_11) (= s_27 s_27) (= s_4 s_4_aux) (= s_28 s_28) (= s_19 s_19) (= s_12 s_12) (= s_25 s_25) (= s_22 s_22) (= s_35 s_35) (= s_7 s_7) (= s_18 s_18) (= s_13 s_13) (= s_5 s_5) (= s_30 s_30) (= s_8 s_8) (= s_10 s_10) (= s_15 s_15) ) (= s_9 s_9)))
(assert (=> (and (= s_9 s_9) (= s_26 s_26) (= s_17 s_17) (= s_23 s_23) (= s_31 s_31) (= s_32 s_32) (= s_6 s_6) (= s_33 s_33) (= s_16 s_16) (= s_24 s_24) (= s_29 s_29) (= s_20 s_20) (= s_34 s_34) (= s_21 s_21) (= s_14 s_14) (= s_36 s_36) (= s_11 s_11) (= s_27 s_27) (= s_4 s_4_aux) (= s_28 s_28) (= s_19 s_19) (= s_25 s_25) (= s_22 s_22) (= s_35 s_35) (= s_7 s_7) (= s_18 s_18) (= s_13 s_13) (= s_5 s_5) (= s_30 s_30) (= s_8 s_8) (= s_10 s_10) (= s_15 s_15) ) (= s_12 s_12)))
(assert (=> (and (= s_9 s_9) (= s_26 s_26) (= s_17 s_17) (= s_23 s_23) (= s_32 s_32) (= s_6 s_6) (= s_33 s_33) (= s_16 s_16) (= s_24 s_24) (= s_29 s_29) (= s_20 s_20) (= s_34 s_34) (= s_21 s_21) (= s_14 s_14) (= s_36 s_36) (= s_11 s_11) (= s_27 s_27) (= s_4 s_4_aux) (= s_28 s_28) (= s_19 s_19) (= s_12 s_12) (= s_25 s_25) (= s_22 s_22) (= s_35 s_35) (= s_7 s_7) (= s_18 s_18) (= s_13 s_13) (= s_5 s_5) (= s_30 s_30) (= s_8 s_8) (= s_10 s_10) (= s_15 s_15) ) (= s_31 s_31)))
(assert (=> (and (= s_9 s_9) (= s_26 s_26) (= s_17 s_17) (= s_23 s_23) (= s_31 s_31) (= s_32 s_32) (= s_6 s_6) (= s_33 s_33) (= s_16 s_16) (= s_24 s_24) (= s_29 s_29) (= s_20 s_20) (= s_34 s_34) (= s_21 s_21) (= s_14 s_14) (= s_36 s_36) (= s_11 s_11) (= s_27 s_27) (= s_4 s_4_aux) (= s_28 s_28) (= s_19 s_19) (= s_12 s_12) (= s_25 s_25) (= s_22 s_22) (= s_35 s_35) (= s_7 s_7) (= s_18 s_18) (= s_13 s_13) (= s_5 s_5) (= s_8 s_8) (= s_10 s_10) (= s_15 s_15) ) (= s_30 s_30)))
(assert (=> (and (= s_9 s_9) (= s_26 s_26) (= s_17 s_17) (= s_23 s_23) (= s_31 s_31) (= s_32 s_32) (= s_6 s_6) (= s_33 s_33) (= s_16 s_16) (= s_24 s_24) (= s_29 s_29) (= s_20 s_20) (= s_34 s_34) (= s_21 s_21) (= s_14 s_14) (= s_36 s_36) (= s_11 s_11) (= s_27 s_27) (= s_4 s_4_aux) (= s_28 s_28) (= s_19 s_19) (= s_12 s_12) (= s_25 s_25) (= s_22 s_22) (= s_7 s_7) (= s_18 s_18) (= s_13 s_13) (= s_5 s_5) (= s_30 s_30) (= s_8 s_8) (= s_10 s_10) (= s_15 s_15) ) (= s_35 s_35)))
(assert (=> (and (= s_9 s_9) (= s_26 s_26) (= s_17 s_17) (= s_23 s_23) (= s_31 s_31) (= s_32 s_32) (= s_6 s_6) (= s_33 s_33) (= s_16 s_16) (= s_24 s_24) (= s_29 s_29) (= s_20 s_20) (= s_34 s_34) (= s_21 s_21) (= s_14 s_14) (= s_36 s_36) (= s_11 s_11) (= s_27 s_27) (= s_4 s_4_aux) (= s_28 s_28) (= s_19 s_19) (= s_12 s_12) (= s_25 s_25) (= s_22 s_22) (= s_35 s_35) (= s_7 s_7) (= s_18 s_18) (= s_5 s_5) (= s_30 s_30) (= s_8 s_8) (= s_10 s_10) (= s_15 s_15) ) (= s_13 s_13)))
(assert (=> (and (= s_9 s_9) (= s_26 s_26) (= s_17 s_17) (= s_23 s_23) (= s_31 s_31) (= s_32 s_32) (= s_6 s_6) (= s_33 s_33) (= s_16 s_16) (= s_24 s_24) (= s_29 s_29) (= s_20 s_20) (= s_34 s_34) (= s_21 s_21) (= s_14 s_14) (= s_36 s_36) (= s_11 s_11) (= s_27 s_27) (= s_4 s_4_aux) (= s_28 s_28) (= s_19 s_19) (= s_12 s_12) (= s_22 s_22) (= s_35 s_35) (= s_7 s_7) (= s_18 s_18) (= s_13 s_13) (= s_5 s_5) (= s_30 s_30) (= s_8 s_8) (= s_10 s_10) (= s_15 s_15) ) (= s_25 s_25)))
(assert (=> (and (= s_9 s_9) (= s_26 s_26) (= s_17 s_17) (= s_23 s_23) (= s_31 s_31) (= s_32 s_32) (= s_6 s_6) (= s_33 s_33) (= s_16 s_16) (= s_24 s_24) (= s_29 s_29) (= s_20 s_20) (= s_34 s_34) (= s_21 s_21) (= s_14 s_14) (= s_36 s_36) (= s_27 s_27) (= s_4 s_4_aux) (= s_28 s_28) (= s_19 s_19) (= s_12 s_12) (= s_25 s_25) (= s_22 s_22) (= s_35 s_35) (= s_7 s_7) (= s_18 s_18) (= s_13 s_13) (= s_5 s_5) (= s_30 s_30) (= s_8 s_8) (= s_10 s_10) (= s_15 s_15) ) (= s_11 s_11)))
(assert (=> (and (= s_9 s_9) (= s_26 s_26) (= s_17 s_17) (= s_23 s_23) (= s_31 s_31) (= s_32 s_32) (= s_6 s_6) (= s_33 s_33) (= s_16 s_16) (= s_24 s_24) (= s_20 s_20) (= s_34 s_34) (= s_21 s_21) (= s_14 s_14) (= s_36 s_36) (= s_11 s_11) (= s_27 s_27) (= s_4 s_4_aux) (= s_28 s_28) (= s_19 s_19) (= s_12 s_12) (= s_25 s_25) (= s_22 s_22) (= s_35 s_35) (= s_7 s_7) (= s_18 s_18) (= s_13 s_13) (= s_5 s_5) (= s_30 s_30) (= s_8 s_8) (= s_10 s_10) (= s_15 s_15) ) (= s_29 s_29)))
(assert (=> (and (= s_9 s_9) (= s_26 s_26) (= s_17 s_17) (= s_23 s_23) (= s_31 s_31) (= s_32 s_32) (= s_6 s_6) (= s_33 s_33) (= s_16 s_16) (= s_24 s_24) (= s_29 s_29) (= s_20 s_20) (= s_34 s_34) (= s_21 s_21) (= s_14 s_14) (= s_36 s_36) (= s_11 s_11) (= s_27 s_27) (= s_4 s_4_aux) (= s_28 s_28) (= s_19 s_19) (= s_12 s_12) (= s_25 s_25) (= s_22 s_22) (= s_35 s_35) (= s_7 s_7) (= s_18 s_18) (= s_13 s_13) (= s_30 s_30) (= s_8 s_8) (= s_10 s_10) (= s_15 s_15) ) (= s_5 s_5)))
(assert (=> (and (= s_9 s_9) (= s_26 s_26) (= s_17 s_17) (= s_23 s_23) (= s_31 s_31) (= s_32 s_32) (= s_6 s_6) (= s_33 s_33) (= s_16 s_16) (= s_24 s_24) (= s_29 s_29) (= s_20 s_20) (= s_34 s_34) (= s_21 s_21) (= s_14 s_14) (= s_36 s_36) (= s_11 s_11) (= s_27 s_27) (= s_4 s_4_aux) (= s_28 s_28) (= s_19 s_19) (= s_12 s_12) (= s_25 s_25) (= s_22 s_22) (= s_35 s_35) (= s_7 s_7) (= s_18 s_18) (= s_13 s_13) (= s_5 s_5) (= s_30 s_30) (= s_8 s_8) (= s_10 s_10) ) (= s_15 s_15)))
(assert (=> (and (= s_9 s_9) (= s_26 s_26) (= s_17 s_17) (= s_23 s_23) (= s_31 s_31) (= s_32 s_32) (= s_6 s_6) (= s_33 s_33) (= s_16 s_16) (= s_24 s_24) (= s_29 s_29) (= s_20 s_20) (= s_34 s_34) (= s_21 s_21) (= s_14 s_14) (= s_36 s_36) (= s_11 s_11) (= s_27 s_27) (= s_4 s_4_aux) (= s_28 s_28) (= s_19 s_19) (= s_12 s_12) (= s_25 s_25) (= s_22 s_22) (= s_35 s_35) (= s_7 s_7) (= s_18 s_18) (= s_13 s_13) (= s_5 s_5) (= s_30 s_30) (= s_8 s_8) (= s_15 s_15) ) (= s_10 s_10)))
(assert (=> (and (= s_9 s_9) (= s_26 s_26) (= s_17 s_17) (= s_23 s_23) (= s_31 s_31) (= s_32 s_32) (= s_6 s_6) (= s_33 s_33) (= s_16 s_16) (= s_24 s_24) (= s_29 s_29) (= s_20 s_20) (= s_21 s_21) (= s_14 s_14) (= s_36 s_36) (= s_11 s_11) (= s_27 s_27) (= s_4 s_4_aux) (= s_28 s_28) (= s_19 s_19) (= s_12 s_12) (= s_25 s_25) (= s_22 s_22) (= s_35 s_35) (= s_7 s_7) (= s_18 s_18) (= s_13 s_13) (= s_5 s_5) (= s_30 s_30) (= s_8 s_8) (= s_10 s_10) (= s_15 s_15) ) (= s_34 s_34)))
(assert (=> (and (= s_9 s_9) (= s_17 s_17) (= s_23 s_23) (= s_31 s_31) (= s_32 s_32) (= s_6 s_6) (= s_33 s_33) (= s_16 s_16) (= s_24 s_24) (= s_29 s_29) (= s_20 s_20) (= s_34 s_34) (= s_21 s_21) (= s_14 s_14) (= s_36 s_36) (= s_11 s_11) (= s_27 s_27) (= s_4 s_4_aux) (= s_28 s_28) (= s_19 s_19) (= s_12 s_12) (= s_25 s_25) (= s_22 s_22) (= s_35 s_35) (= s_7 s_7) (= s_18 s_18) (= s_13 s_13) (= s_5 s_5) (= s_30 s_30) (= s_8 s_8) (= s_10 s_10) (= s_15 s_15) ) (= s_26 s_26)))
(assert (=> (and (= s_9 s_9) (= s_26 s_26) (= s_17 s_17) (= s_23 s_23) (= s_31 s_31) (= s_32 s_32) (= s_6 s_6) (= s_33 s_33) (= s_16 s_16) (= s_24 s_24) (= s_29 s_29) (= s_20 s_20) (= s_34 s_34) (= s_14 s_14) (= s_36 s_36) (= s_11 s_11) (= s_27 s_27) (= s_4 s_4_aux) (= s_28 s_28) (= s_19 s_19) (= s_12 s_12) (= s_25 s_25) (= s_22 s_22) (= s_35 s_35) (= s_7 s_7) (= s_18 s_18) (= s_13 s_13) (= s_5 s_5) (= s_30 s_30) (= s_8 s_8) (= s_10 s_10) (= s_15 s_15) ) (= s_21 s_21)))
(assert (=> (and (= s_9 s_9) (= s_26 s_26) (= s_17 s_17) (= s_23 s_23) (= s_31 s_31) (= s_32 s_32) (= s_33 s_33) (= s_16 s_16) (= s_24 s_24) (= s_29 s_29) (= s_20 s_20) (= s_34 s_34) (= s_21 s_21) (= s_14 s_14) (= s_36 s_36) (= s_11 s_11) (= s_27 s_27) (= s_4 s_4_aux) (= s_28 s_28) (= s_19 s_19) (= s_12 s_12) (= s_25 s_25) (= s_22 s_22) (= s_35 s_35) (= s_7 s_7) (= s_18 s_18) (= s_13 s_13) (= s_5 s_5) (= s_30 s_30) (= s_8 s_8) (= s_10 s_10) (= s_15 s_15) ) (= s_6 s_6)))
(assert (=> (and (= s_9 s_9) (= s_26 s_26) (= s_17 s_17) (= s_23 s_23) (= s_31 s_31) (= s_32 s_32) (= s_6 s_6) (= s_33 s_33) (= s_16 s_16) (= s_24 s_24) (= s_29 s_29) (= s_20 s_20) (= s_34 s_34) (= s_21 s_21) (= s_14 s_14) (= s_36 s_36) (= s_11 s_11) (= s_27 s_27) (= s_4 s_4_aux) (= s_28 s_28) (= s_19 s_19) (= s_12 s_12) (= s_25 s_25) (= s_22 s_22) (= s_35 s_35) (= s_7 s_7) (= s_13 s_13) (= s_5 s_5) (= s_30 s_30) (= s_8 s_8) (= s_10 s_10) (= s_15 s_15) ) (= s_18 s_18)))
(assert (=> (and (= s_9 s_9) (= s_26 s_26) (= s_23 s_23) (= s_31 s_31) (= s_32 s_32) (= s_6 s_6) (= s_33 s_33) (= s_16 s_16) (= s_24 s_24) (= s_29 s_29) (= s_20 s_20) (= s_34 s_34) (= s_21 s_21) (= s_14 s_14) (= s_36 s_36) (= s_11 s_11) (= s_27 s_27) (= s_4 s_4_aux) (= s_28 s_28) (= s_19 s_19) (= s_12 s_12) (= s_25 s_25) (= s_22 s_22) (= s_35 s_35) (= s_7 s_7) (= s_18 s_18) (= s_13 s_13) (= s_5 s_5) (= s_30 s_30) (= s_8 s_8) (= s_10 s_10) (= s_15 s_15) ) (= s_17 s_17)))
(assert (=> (and (= s_9 s_9) (= s_26 s_26) (= s_17 s_17) (= s_23 s_23) (= s_31 s_31) (= s_32 s_32) (= s_6 s_6) (= s_16 s_16) (= s_24 s_24) (= s_29 s_29) (= s_20 s_20) (= s_34 s_34) (= s_21 s_21) (= s_14 s_14) (= s_36 s_36) (= s_11 s_11) (= s_27 s_27) (= s_4 s_4_aux) (= s_28 s_28) (= s_19 s_19) (= s_12 s_12) (= s_25 s_25) (= s_22 s_22) (= s_35 s_35) (= s_7 s_7) (= s_18 s_18) (= s_13 s_13) (= s_5 s_5) (= s_30 s_30) (= s_8 s_8) (= s_10 s_10) (= s_15 s_15) ) (= s_33 s_33)))
(assert (=> (and (= s_9 s_9) (= s_26 s_26) (= s_17 s_17) (= s_23 s_23) (= s_31 s_31) (= s_32 s_32) (= s_6 s_6) (= s_33 s_33) (= s_16 s_16) (= s_29 s_29) (= s_20 s_20) (= s_34 s_34) (= s_21 s_21) (= s_14 s_14) (= s_36 s_36) (= s_11 s_11) (= s_27 s_27) (= s_4 s_4_aux) (= s_28 s_28) (= s_19 s_19) (= s_12 s_12) (= s_25 s_25) (= s_22 s_22) (= s_35 s_35) (= s_7 s_7) (= s_18 s_18) (= s_13 s_13) (= s_5 s_5) (= s_30 s_30) (= s_8 s_8) (= s_10 s_10) (= s_15 s_15) ) (= s_24 s_24)))
(assert (=> (and (= s_9 s_9) (= s_26 s_26) (= s_17 s_17) (= s_23 s_23) (= s_31 s_31) (= s_32 s_32) (= s_6 s_6) (= s_33 s_33) (= s_16 s_16) (= s_24 s_24) (= s_29 s_29) (= s_20 s_20) (= s_34 s_34) (= s_21 s_21) (= s_14 s_14) (= s_36 s_36) (= s_11 s_11) (= s_27 s_27) (= s_4 s_4_aux) (= s_19 s_19) (= s_12 s_12) (= s_25 s_25) (= s_22 s_22) (= s_35 s_35) (= s_7 s_7) (= s_18 s_18) (= s_13 s_13) (= s_5 s_5) (= s_30 s_30) (= s_8 s_8) (= s_10 s_10) (= s_15 s_15) ) (= s_28 s_28)))
(assert (not (= s_4 s_4_aux)))
(check-sat)
